
Gurobi 9.5.2 (mac64[arm]) logging started Fri Apr 28 13:29:15 2023

Set parameter LogFile to value "Java/output/pure_mip_2_machine/scenario_seed_2_nJob_30_machineCount_2/mip_increment_5/log.txt"
Gurobi Optimizer version 9.5.2 build v9.5.2rc0 (mac64[arm])
Thread count: 8 physical cores, 8 logical processors, using up to 8 threads
Optimize a model with 442 rows, 4416 columns and 18118 nonzeros
Model fingerprint: 0x16d544f6
Variable types: 0 continuous, 4416 integer (4416 binary)
Coefficient statistics:
  Matrix range     [1e+00, 1e+02]
  Objective range  [2e+00, 2e+06]
  Bounds range     [1e+00, 1e+00]
  RHS range        [1e+00, 1e+00]
Presolve removed 20 rows and 825 columns
Presolve time: 0.02s
Presolved: 422 rows, 3591 columns, 14835 nonzeros
Variable types: 0 continuous, 3591 integer (3591 binary)

Root relaxation: objective 1.676989e+05, 1973 iterations, 0.03 seconds (0.04 work units)

    Nodes    |    Current Node    |     Objective Bounds      |     Work
 Expl Unexpl |  Obj  Depth IntInf | Incumbent    BestBd   Gap | It/Node Time

     0     0 167698.864    0  103          - 167698.864      -     -    0s
H    0     0                    7436181.0000 167698.864  97.7%     -    0s
H    0     0                    4963122.0000 167698.864  96.6%     -    0s
     0     0 169128.796    0  139 4963122.00 169128.796  96.6%     -    0s
H    0     0                    3736010.0000 169128.796  95.5%     -    0s
H    0     0                    2559275.0000 169128.796  93.4%     -    0s
     0     0 169128.796    0  132 2559275.00 169128.796  93.4%     -    0s
     0     0 173663.851    0  237 2559275.00 173663.851  93.2%     -    0s
H    0     0                    2541819.0000 173663.851  93.2%     -    0s
H    0     0                    2282639.0000 173663.851  92.4%     -    0s
H    0     0                    2272300.0000 173663.851  92.4%     -    0s
     0     0 173916.631    0  249 2272300.00 173916.631  92.3%     -    0s
     0     0 173917.503    0  252 2272300.00 173917.503  92.3%     -    0s
H    0     0                    1802636.0000 173917.503  90.4%     -    0s
     0     0 177387.633    0  231 1802636.00 177387.633  90.2%     -    0s
H    0     0                    1799157.0000 177387.633  90.1%     -    0s
H    0     0                    876587.00000 177387.633  79.8%     -    0s
H    0     0                    803022.00000 177387.633  77.9%     -    0s
     0     0 177904.868    0  237 803022.000 177904.868  77.8%     -    0s
     0     0 177929.140    0  238 803022.000 177929.140  77.8%     -    0s
     0     0 177929.140    0  238 803022.000 177929.140  77.8%     -    0s
     0     0 180418.978    0  223 803022.000 180418.978  77.5%     -    0s
H    0     0                    801502.00000 180418.978  77.5%     -    0s
H    0     0                    789483.00000 180418.978  77.1%     -    0s
     0     0 180905.062    0  230 789483.000 180905.062  77.1%     -    0s
     0     0 181046.375    0  241 789483.000 181046.375  77.1%     -    0s
     0     0 181046.677    0  244 789483.000 181046.677  77.1%     -    0s
     0     0 183532.967    0  278 789483.000 183532.967  76.8%     -    0s
H    0     0                    471259.00000 183539.993  61.1%     -    0s
H    0     0                    349028.00000 183539.993  47.4%     -    0s
     0     0 183539.993    0  281 349028.000 183539.993  47.4%     -    0s
     0     0 183966.680    0  300 349028.000 183966.680  47.3%     -    0s
H    0     0                    349026.00000 183966.680  47.3%     -    0s
H    0     0                    287926.00000 183966.680  36.1%     -    0s
     0     0 184021.852    0  301 287926.000 184021.852  36.1%     -    0s
     0     0 184022.448    0  299 287926.000 184022.448  36.1%     -    0s
     0     0 185643.243    0  295 287926.000 185643.243  35.5%     -    0s
H    0     0                    256780.00000 185643.243  27.7%     -    0s
     0     0 185935.655    0  305 256780.000 185935.655  27.6%     -    0s
     0     0 185945.454    0  308 256780.000 185945.454  27.6%     -    0s
     0     0 188166.340    0  308 256780.000 188166.340  26.7%     -    0s
     0     0 188169.685    0  313 256780.000 188169.685  26.7%     -    0s
     0     0 188559.293    0  285 256780.000 188559.293  26.6%     -    0s
     0     0 188642.121    0  287 256780.000 188642.121  26.5%     -    0s
     0     0 188676.004    0  289 256780.000 188676.004  26.5%     -    0s
     0     0 188676.004    0  289 256780.000 188676.004  26.5%     -    0s
     0     0 188743.028    0  145 256780.000 188743.028  26.5%     -    0s
H    0     0                    253925.00000 188743.028  25.7%     -    0s
     0     0 188744.588    0  148 253925.000 188744.588  25.7%     -    0s
     0     0 188826.369    0  142 253925.000 188826.369  25.6%     -    0s
     0     0 188826.369    0  131 253925.000 188826.369  25.6%     -    0s
H    0     0                    223158.00000 188883.928  15.4%     -    0s
     0     0 188883.928    0   95 223158.000 188883.928  15.4%     -    0s
     0     0 188883.928    0  132 223158.000 188883.928  15.4%     -    1s
     0     0 188883.928    0  228 223158.000 188883.928  15.4%     -    1s
     0     0 189668.804    0  147 223158.000 189668.804  15.0%     -    1s
     0     0 191338.555    0  123 223158.000 191338.555  14.3%     -    1s
     0     0 191683.127    0  106 223158.000 191683.127  14.1%     -    1s
     0     0 191803.882    0  129 223158.000 191803.882  14.1%     -    1s
     0     0 191804.279    0  129 223158.000 191804.279  14.1%     -    1s
     0     0 199595.281    0  298 223158.000 199595.281  10.6%     -    1s
     0     0 199810.191    0  283 223158.000 199810.191  10.5%     -    1s
     0     0 199810.191    0  285 223158.000 199810.191  10.5%     -    1s
     0     0 200529.778    0   57 223158.000 200529.778  10.1%     -    1s
H    0     0                    221270.00000 200529.778  9.37%     -    1s
     0     0 203871.333    0   34 221270.000 203871.333  7.86%     -    1s
*    0     0               0    204848.00000 204848.000  0.00%     -    1s

Cutting planes:
  Gomory: 6
  Cover: 2
  Clique: 25
  MIR: 39
  StrongCG: 16
  GUB cover: 74
  Zero half: 12
  RLT: 5

Explored 1 nodes (14203 simplex iterations) in 1.18 seconds (1.41 work units)
Thread count was 8 (of 8 available processors)

Solution count 10: 204848 221270 223158 ... 789483

Optimal solution found (tolerance 1.00e-04)
Best objective 2.048480000000e+05, best bound 2.048480000000e+05, gap 0.0000%
